max:400 x1 + 250 x2 + 480 x3 + 500 x4;

/* Variable bounds */
x1 >= 0;
x2 >= 0;
x3 >= 0;
x4 >= 0;

x1 + x2 + x3 + x4 <= 1000;
0.8 x1 - 0.2 x2 - 0.2 x3 - 0.2 x4 >= 0;
x4 <= 300;
2 x1 + 3 x2 +2 x3 + 2 x4 <= 2000;
10 x1 + 10 x2 + 12 x3 +25 x4<= 12000;